p cnf 157 711
c p weight 66 0 0
c p weight -66 1 0
c p weight 67 1 0
c p weight -67 1 0
c p weight 154 -1 0
c p weight -154 1 0
c p weight 157 0.5 0
157 0
-61 0
-59 0
-57 0
-55 0
-53 0
-51 0
-49 0
-47 0
-45 0
-43 0
-41 0
-39 0
-37 0
-35 0
-33 0
-31 0
-29 0
-27 0
-25 0
-23 0
-21 0
-19 0
-17 0
-15 0
-13 0
-11 0
-9 0
-7 0
-5 0
-3 0
-1 0
62 -61 59 0
62 -61 60 0
-62 61 59 0
-62 61 60 0
62 61 -59 -60 0
-62 -61 -59 -60 0
63 59 -60 0
63 -59 60 0
-63 59 60 0
-63 -59 -60 0
64 65 -62 0
64 -62 63 0
-64 65 62 0
-64 62 63 0
64 -62 -59 0
-64 62 -59 0
64 -65 62 59 -63 0
-64 -65 -62 59 -63 0
65 -59 63 0
-65 59 63 0
-66 63 0
65 -66 -59 0
-65 -66 59 0
65 66 59 -63 0
-65 66 -59 -63 0
-67 63 0
65 -67 59 0
-65 -67 -59 0
65 67 -59 -63 0
-65 67 59 -63 0
68 -64 65 0
68 -64 63 0
-68 64 65 0
-68 64 63 0
68 64 -65 -63 0
-68 -64 -65 -63 0
69 65 -63 0
69 -65 63 0
-69 65 63 0
-69 -65 -63 0
70 -68 65 0
70 -68 58 0
-70 68 65 0
-70 68 58 0
70 -68 57 -69 0
70 -68 -57 69 0
-70 68 57 -69 0
-70 68 -57 69 0
70 68 -65 57 69 -58 0
70 68 -65 -57 -69 -58 0
-70 -68 -65 57 69 -58 0
-70 -68 -65 -57 -69 -58 0
72 65 -57 0
72 -65 57 0
-72 65 57 0
-72 -65 -57 0
71 69 -58 0
71 -69 58 0
-71 69 58 0
-71 -69 -58 0
73 -70 72 0
73 -70 56 0
-73 70 72 0
-73 70 56 0
73 -70 55 -58 0
73 -70 -55 58 0
-73 70 55 -58 0
-73 70 -55 58 0
73 70 -72 55 58 -56 0
73 70 -72 -55 -58 -56 0
-73 -70 -72 55 58 -56 0
-73 -70 -72 -55 -58 -56 0
75 72 -55 0
75 -72 55 0
-75 72 55 0
-75 -72 -55 0
74 58 -56 0
74 -58 56 0
-74 58 56 0
-74 -58 -56 0
76 -73 75 0
76 -73 54 0
-76 73 75 0
-76 73 54 0
76 -73 53 -56 0
76 -73 -53 56 0
-76 73 53 -56 0
-76 73 -53 56 0
76 73 -75 53 56 -54 0
76 73 -75 -53 -56 -54 0
-76 -73 -75 53 56 -54 0
-76 -73 -75 -53 -56 -54 0
78 75 -53 0
78 -75 53 0
-78 75 53 0
-78 -75 -53 0
77 56 -54 0
77 -56 54 0
-77 56 54 0
-77 -56 -54 0
79 -76 78 0
79 -76 52 0
-79 76 78 0
-79 76 52 0
79 -76 51 -54 0
79 -76 -51 54 0
-79 76 51 -54 0
-79 76 -51 54 0
79 76 -78 51 54 -52 0
79 76 -78 -51 -54 -52 0
-79 -76 -78 51 54 -52 0
-79 -76 -78 -51 -54 -52 0
81 78 -51 0
81 -78 51 0
-81 78 51 0
-81 -78 -51 0
80 54 -52 0
80 -54 52 0
-80 54 52 0
-80 -54 -52 0
82 -79 81 0
82 -79 50 0
-82 79 81 0
-82 79 50 0
82 -79 49 -52 0
82 -79 -49 52 0
-82 79 49 -52 0
-82 79 -49 52 0
82 79 -81 49 52 -50 0
82 79 -81 -49 -52 -50 0
-82 -79 -81 49 52 -50 0
-82 -79 -81 -49 -52 -50 0
84 81 -49 0
84 -81 49 0
-84 81 49 0
-84 -81 -49 0
83 52 -50 0
83 -52 50 0
-83 52 50 0
-83 -52 -50 0
85 -82 84 0
85 -82 48 0
-85 82 84 0
-85 82 48 0
85 -82 47 -50 0
85 -82 -47 50 0
-85 82 47 -50 0
-85 82 -47 50 0
85 82 -84 47 50 -48 0
85 82 -84 -47 -50 -48 0
-85 -82 -84 47 50 -48 0
-85 -82 -84 -47 -50 -48 0
87 84 -47 0
87 -84 47 0
-87 84 47 0
-87 -84 -47 0
86 50 -48 0
86 -50 48 0
-86 50 48 0
-86 -50 -48 0
88 -85 87 0
88 -85 46 0
-88 85 87 0
-88 85 46 0
88 -85 45 -48 0
88 -85 -45 48 0
-88 85 45 -48 0
-88 85 -45 48 0
88 85 -87 45 48 -46 0
88 85 -87 -45 -48 -46 0
-88 -85 -87 45 48 -46 0
-88 -85 -87 -45 -48 -46 0
90 87 -45 0
90 -87 45 0
-90 87 45 0
-90 -87 -45 0
89 48 -46 0
89 -48 46 0
-89 48 46 0
-89 -48 -46 0
91 -88 90 0
91 -88 44 0
-91 88 90 0
-91 88 44 0
91 -88 43 -46 0
91 -88 -43 46 0
-91 88 43 -46 0
-91 88 -43 46 0
91 88 -90 43 46 -44 0
91 88 -90 -43 -46 -44 0
-91 -88 -90 43 46 -44 0
-91 -88 -90 -43 -46 -44 0
93 90 -43 0
93 -90 43 0
-93 90 43 0
-93 -90 -43 0
92 46 -44 0
92 -46 44 0
-92 46 44 0
-92 -46 -44 0
94 -91 93 0
94 -91 42 0
-94 91 93 0
-94 91 42 0
94 -91 41 -44 0
94 -91 -41 44 0
-94 91 41 -44 0
-94 91 -41 44 0
94 91 -93 41 44 -42 0
94 91 -93 -41 -44 -42 0
-94 -91 -93 41 44 -42 0
-94 -91 -93 -41 -44 -42 0
96 93 -41 0
96 -93 41 0
-96 93 41 0
-96 -93 -41 0
95 44 -42 0
95 -44 42 0
-95 44 42 0
-95 -44 -42 0
97 -94 96 0
97 -94 40 0
-97 94 96 0
-97 94 40 0
97 -94 39 -42 0
97 -94 -39 42 0
-97 94 39 -42 0
-97 94 -39 42 0
97 94 -96 39 42 -40 0
97 94 -96 -39 -42 -40 0
-97 -94 -96 39 42 -40 0
-97 -94 -96 -39 -42 -40 0
99 96 -39 0
99 -96 39 0
-99 96 39 0
-99 -96 -39 0
98 42 -40 0
98 -42 40 0
-98 42 40 0
-98 -42 -40 0
100 -97 99 0
100 -97 38 0
-100 97 99 0
-100 97 38 0
100 -97 37 -40 0
100 -97 -37 40 0
-100 97 37 -40 0
-100 97 -37 40 0
100 97 -99 37 40 -38 0
100 97 -99 -37 -40 -38 0
-100 -97 -99 37 40 -38 0
-100 -97 -99 -37 -40 -38 0
102 99 -37 0
102 -99 37 0
-102 99 37 0
-102 -99 -37 0
101 40 -38 0
101 -40 38 0
-101 40 38 0
-101 -40 -38 0
103 -100 102 0
103 -100 36 0
-103 100 102 0
-103 100 36 0
103 -100 35 -38 0
103 -100 -35 38 0
-103 100 35 -38 0
-103 100 -35 38 0
103 100 -102 35 38 -36 0
103 100 -102 -35 -38 -36 0
-103 -100 -102 35 38 -36 0
-103 -100 -102 -35 -38 -36 0
105 102 -35 0
105 -102 35 0
-105 102 35 0
-105 -102 -35 0
104 38 -36 0
104 -38 36 0
-104 38 36 0
-104 -38 -36 0
106 -103 105 0
106 -103 34 0
-106 103 105 0
-106 103 34 0
106 -103 33 -36 0
106 -103 -33 36 0
-106 103 33 -36 0
-106 103 -33 36 0
106 103 -105 33 36 -34 0
106 103 -105 -33 -36 -34 0
-106 -103 -105 33 36 -34 0
-106 -103 -105 -33 -36 -34 0
108 105 -33 0
108 -105 33 0
-108 105 33 0
-108 -105 -33 0
107 36 -34 0
107 -36 34 0
-107 36 34 0
-107 -36 -34 0
109 -106 108 0
109 -106 32 0
-109 106 108 0
-109 106 32 0
109 -106 31 -34 0
109 -106 -31 34 0
-109 106 31 -34 0
-109 106 -31 34 0
109 106 -108 31 34 -32 0
109 106 -108 -31 -34 -32 0
-109 -106 -108 31 34 -32 0
-109 -106 -108 -31 -34 -32 0
111 108 -31 0
111 -108 31 0
-111 108 31 0
-111 -108 -31 0
110 34 -32 0
110 -34 32 0
-110 34 32 0
-110 -34 -32 0
112 -109 111 0
112 -109 30 0
-112 109 111 0
-112 109 30 0
112 -109 29 -32 0
112 -109 -29 32 0
-112 109 29 -32 0
-112 109 -29 32 0
112 109 -111 29 32 -30 0
112 109 -111 -29 -32 -30 0
-112 -109 -111 29 32 -30 0
-112 -109 -111 -29 -32 -30 0
114 111 -29 0
114 -111 29 0
-114 111 29 0
-114 -111 -29 0
113 32 -30 0
113 -32 30 0
-113 32 30 0
-113 -32 -30 0
115 -112 114 0
115 -112 28 0
-115 112 114 0
-115 112 28 0
115 -112 27 -30 0
115 -112 -27 30 0
-115 112 27 -30 0
-115 112 -27 30 0
115 112 -114 27 30 -28 0
115 112 -114 -27 -30 -28 0
-115 -112 -114 27 30 -28 0
-115 -112 -114 -27 -30 -28 0
117 114 -27 0
117 -114 27 0
-117 114 27 0
-117 -114 -27 0
116 30 -28 0
116 -30 28 0
-116 30 28 0
-116 -30 -28 0
118 -115 117 0
118 -115 26 0
-118 115 117 0
-118 115 26 0
118 -115 25 -28 0
118 -115 -25 28 0
-118 115 25 -28 0
-118 115 -25 28 0
118 115 -117 25 28 -26 0
118 115 -117 -25 -28 -26 0
-118 -115 -117 25 28 -26 0
-118 -115 -117 -25 -28 -26 0
120 117 -25 0
120 -117 25 0
-120 117 25 0
-120 -117 -25 0
119 28 -26 0
119 -28 26 0
-119 28 26 0
-119 -28 -26 0
121 -118 120 0
121 -118 24 0
-121 118 120 0
-121 118 24 0
121 -118 23 -26 0
121 -118 -23 26 0
-121 118 23 -26 0
-121 118 -23 26 0
121 118 -120 23 26 -24 0
121 118 -120 -23 -26 -24 0
-121 -118 -120 23 26 -24 0
-121 -118 -120 -23 -26 -24 0
123 120 -23 0
123 -120 23 0
-123 120 23 0
-123 -120 -23 0
122 26 -24 0
122 -26 24 0
-122 26 24 0
-122 -26 -24 0
124 -121 123 0
124 -121 22 0
-124 121 123 0
-124 121 22 0
124 -121 21 -24 0
124 -121 -21 24 0
-124 121 21 -24 0
-124 121 -21 24 0
124 121 -123 21 24 -22 0
124 121 -123 -21 -24 -22 0
-124 -121 -123 21 24 -22 0
-124 -121 -123 -21 -24 -22 0
126 123 -21 0
126 -123 21 0
-126 123 21 0
-126 -123 -21 0
125 24 -22 0
125 -24 22 0
-125 24 22 0
-125 -24 -22 0
127 -124 126 0
127 -124 20 0
-127 124 126 0
-127 124 20 0
127 -124 19 -22 0
127 -124 -19 22 0
-127 124 19 -22 0
-127 124 -19 22 0
127 124 -126 19 22 -20 0
127 124 -126 -19 -22 -20 0
-127 -124 -126 19 22 -20 0
-127 -124 -126 -19 -22 -20 0
129 126 -19 0
129 -126 19 0
-129 126 19 0
-129 -126 -19 0
128 22 -20 0
128 -22 20 0
-128 22 20 0
-128 -22 -20 0
130 -127 129 0
130 -127 18 0
-130 127 129 0
-130 127 18 0
130 -127 17 -20 0
130 -127 -17 20 0
-130 127 17 -20 0
-130 127 -17 20 0
130 127 -129 17 20 -18 0
130 127 -129 -17 -20 -18 0
-130 -127 -129 17 20 -18 0
-130 -127 -129 -17 -20 -18 0
132 129 -17 0
132 -129 17 0
-132 129 17 0
-132 -129 -17 0
131 20 -18 0
131 -20 18 0
-131 20 18 0
-131 -20 -18 0
133 -130 132 0
133 -130 16 0
-133 130 132 0
-133 130 16 0
133 -130 15 -18 0
133 -130 -15 18 0
-133 130 15 -18 0
-133 130 -15 18 0
133 130 -132 15 18 -16 0
133 130 -132 -15 -18 -16 0
-133 -130 -132 15 18 -16 0
-133 -130 -132 -15 -18 -16 0
135 132 -15 0
135 -132 15 0
-135 132 15 0
-135 -132 -15 0
134 18 -16 0
134 -18 16 0
-134 18 16 0
-134 -18 -16 0
136 -133 135 0
136 -133 14 0
-136 133 135 0
-136 133 14 0
136 -133 13 -16 0
136 -133 -13 16 0
-136 133 13 -16 0
-136 133 -13 16 0
136 133 -135 13 16 -14 0
136 133 -135 -13 -16 -14 0
-136 -133 -135 13 16 -14 0
-136 -133 -135 -13 -16 -14 0
138 135 -13 0
138 -135 13 0
-138 135 13 0
-138 -135 -13 0
137 16 -14 0
137 -16 14 0
-137 16 14 0
-137 -16 -14 0
139 -136 138 0
139 -136 12 0
-139 136 138 0
-139 136 12 0
139 -136 11 -14 0
139 -136 -11 14 0
-139 136 11 -14 0
-139 136 -11 14 0
139 136 -138 11 14 -12 0
139 136 -138 -11 -14 -12 0
-139 -136 -138 11 14 -12 0
-139 -136 -138 -11 -14 -12 0
141 138 -11 0
141 -138 11 0
-141 138 11 0
-141 -138 -11 0
140 14 -12 0
140 -14 12 0
-140 14 12 0
-140 -14 -12 0
142 -139 141 0
142 -139 10 0
-142 139 141 0
-142 139 10 0
142 -139 9 -12 0
142 -139 -9 12 0
-142 139 9 -12 0
-142 139 -9 12 0
142 139 -141 9 12 -10 0
142 139 -141 -9 -12 -10 0
-142 -139 -141 9 12 -10 0
-142 -139 -141 -9 -12 -10 0
144 141 -9 0
144 -141 9 0
-144 141 9 0
-144 -141 -9 0
143 12 -10 0
143 -12 10 0
-143 12 10 0
-143 -12 -10 0
145 -142 144 0
145 -142 8 0
-145 142 144 0
-145 142 8 0
145 -142 7 -10 0
145 -142 -7 10 0
-145 142 7 -10 0
-145 142 -7 10 0
145 142 -144 7 10 -8 0
145 142 -144 -7 -10 -8 0
-145 -142 -144 7 10 -8 0
-145 -142 -144 -7 -10 -8 0
147 144 -7 0
147 -144 7 0
-147 144 7 0
-147 -144 -7 0
146 10 -8 0
146 -10 8 0
-146 10 8 0
-146 -10 -8 0
148 -145 147 0
148 -145 6 0
-148 145 147 0
-148 145 6 0
148 -145 5 -8 0
148 -145 -5 8 0
-148 145 5 -8 0
-148 145 -5 8 0
148 145 -147 5 8 -6 0
148 145 -147 -5 -8 -6 0
-148 -145 -147 5 8 -6 0
-148 -145 -147 -5 -8 -6 0
150 147 -5 0
150 -147 5 0
-150 147 5 0
-150 -147 -5 0
149 8 -6 0
149 -8 6 0
-149 8 6 0
-149 -8 -6 0
151 -148 150 0
151 -148 4 0
-151 148 150 0
-151 148 4 0
151 -148 3 -6 0
151 -148 -3 6 0
-151 148 3 -6 0
-151 148 -3 6 0
151 148 -150 3 6 -4 0
151 148 -150 -3 -6 -4 0
-151 -148 -150 3 6 -4 0
-151 -148 -150 -3 -6 -4 0
153 150 -3 0
153 -150 3 0
-153 150 3 0
-153 -150 -3 0
152 6 -4 0
152 -6 4 0
-152 6 4 0
-152 -6 -4 0
154 -151 153 0
154 -151 2 0
-154 151 153 0
-154 151 2 0
154 -151 1 -4 0
154 -151 -1 4 0
-154 151 1 -4 0
-154 151 -1 4 0
154 151 -153 1 4 -2 0
154 151 -153 -1 -4 -2 0
-154 -151 -153 1 4 -2 0
-154 -151 -153 -1 -4 -2 0
156 153 -1 0
156 -153 1 0
-156 153 1 0
-156 -153 -1 0
155 4 -2 0
155 -4 2 0
-155 4 2 0
-155 -4 -2 0
-156 0
-153 0
-155 0
-150 0
-152 0
-147 0
-149 0
-144 0
-146 0
-141 0
-143 0
-138 0
-140 0
-135 0
-137 0
-132 0
-134 0
-129 0
-131 0
-126 0
-128 0
-123 0
-125 0
-120 0
-122 0
-117 0
-119 0
-114 0
-116 0
-111 0
-113 0
-108 0
-110 0
-105 0
-107 0
-102 0
-104 0
-99 0
-101 0
-96 0
-98 0
-93 0
-95 0
-90 0
-92 0
-87 0
-89 0
-84 0
-86 0
-81 0
-83 0
-78 0
-80 0
-75 0
-77 0
-72 0
-74 0
-65 0
-71 0
